[[24,29,47,55,65,272,273,276,296,310,317,324,338,607,632,704],[68,70,342,344,346,348,363,594,633,670,671,684,691,711,730,735],[1,153,156,161,366,394,398,399,409,424,457,459,832,835,848,851,857],[2,38,39,201,215,225,229,250,550,566,572,579,586,964,991,994,999],[64,137,166,174,192,198,200,214,466,473,480,532,920,926,941,958,959],[73,75,82,89,113,253,371,375,376,709,753,756,764,786,795,802,828]]